
Gurobi 10.0.0 (win64) logging started Thu Jun 13 08:34:19 2024

Set parameter LogFile to value "C:\Users\ealvarezq\Documents\GitHub\Comillas\Models\JointResearch\05. Models\06.Benchmarking\D.Representative_days_based_on_RES_and_Demand\RTS24_mod2_ByStages_nc70/openStarNet_RTS24_mod2_ByStages_nc70.log"
Set parameter Method to value 2
Set parameter MIPFocus to value 1
Set parameter Presolve to value 2
Set parameter RINS to value 100
Set parameter MIPGap to value 0.01
Set parameter Threads to value 9
Set parameter TimeLimit to value 259200
Set parameter IterationLimit to value 760000000
Gurobi Optimizer version 10.0.0 build v10.0.0rc2 (win64)

CPU model: Intel(R) Core(TM) i7-8700 CPU @ 3.20GHz, instruction set [SSE2|AVX|AVX2]
Thread count: 6 physical cores, 12 logical processors, using up to 9 threads

Optimize a model with 24853 rows, 16790 columns and 67741 nonzeros
Model fingerprint: 0xa8773973
Variable types: 16769 continuous, 21 integer (21 binary)
Coefficient statistics:
  Matrix range     [5e-03, 5e+02]
  Objective range  [1e+00, 1e+00]
  Bounds range     [4e-05, 2e+00]
  RHS range        [4e-05, 2e+00]
Presolve removed 14802 rows and 8513 columns
Presolve time: 0.12s
Presolved: 10051 rows, 8277 columns, 36293 nonzeros
Variable types: 8256 continuous, 21 integer (21 binary)
Found heuristic solution: objective 129.2068715
Root relaxation presolved: 10051 rows, 8277 columns, 36293 nonzeros

Root barrier log...

Ordering time: 0.00s

Barrier statistics:
 Dense cols : 21
 AA' NZ     : 6.742e+04
 Factor NZ  : 1.931e+05 (roughly 9 MB of memory)
 Factor Ops : 3.960e+06 (less than 1 second per iteration)
 Threads    : 9

                  Objective                Residual
Iter       Primal          Dual         Primal    Dual     Compl     Time
   0   6.87090257e+05 -6.85503211e+07  5.44e+00 1.79e+02  8.36e+03     0s
   1   1.06880431e+05 -1.80064782e+07  7.19e-01 3.26e-09  1.17e+03     0s
   2   3.84438132e+04 -2.64143347e+06  1.55e-01 7.19e-10  1.46e+02     0s
   3   1.87132123e+04 -2.77488261e+05  6.03e-03 4.46e-10  1.29e+01     0s
   4   7.48402700e+03 -5.03004264e+04  2.33e-04 6.48e-11  2.47e+00     0s
   5   1.32211446e+03 -5.30285022e+03  2.29e-05 7.96e-12  2.83e-01     0s
   6   4.28812598e+02 -1.54932060e+03  1.97e-06 2.16e-12  8.44e-02     0s
   7   2.97904122e+02 -5.04941896e+02  9.20e-07 1.31e-12  3.42e-02     0s
   8   1.89137191e+02 -1.77519990e+02  4.26e-07 1.21e-12  1.56e-02     0s
   9   1.10805478e+02  8.76004379e+00  1.34e-07 1.08e-12  4.35e-03     0s
  10   8.17774979e+01  4.20763522e+01  5.04e-08 9.14e-13  1.69e-03     0s
  11   7.23770678e+01  5.07798411e+01  2.49e-08 1.52e-12  9.21e-04     0s
  12   6.87612072e+01  5.43500246e+01  1.48e-08 7.36e-13  6.15e-04     0s
  13   6.66404848e+01  5.77819708e+01  9.22e-09 5.84e-13  3.78e-04     0s
  14   6.52113568e+01  6.02252317e+01  4.91e-09 1.77e-12  2.13e-04     0s
  15   6.43004145e+01  6.19054190e+01  2.37e-09 6.86e-13  1.02e-04     0s
  16   6.37025594e+01  6.27498236e+01  8.37e-10 8.25e-13  4.06e-05     0s
  17   6.35312622e+01  6.29633124e+01  4.79e-10 9.43e-13  2.42e-05     0s
  18   6.34155079e+01  6.31357354e+01  2.00e-10 1.29e-12  1.19e-05     0s
  19   6.33566469e+01  6.32576137e+01  6.43e-11 1.79e-12  4.22e-06     0s
  20   6.33373165e+01  6.33033268e+01  5.30e-11 8.94e-13  1.45e-06     0s
  21   6.33305645e+01  6.33222052e+01  5.08e-11 7.80e-13  3.57e-07     0s
  22   6.33284194e+01  6.33274618e+01  6.84e-11 6.37e-13  4.08e-08     0s
  23   6.33283421e+01  6.33278508e+01  4.92e-11 5.56e-13  2.10e-08     0s
  24   6.33281637e+01  6.33281356e+01  6.45e-11 1.22e-12  1.20e-09     0s
  25   6.33281433e+01  6.33281433e+01  7.99e-11 1.33e-12  2.61e-12     0s

Barrier solved model in 25 iterations and 0.37 seconds (0.39 work units)
Optimal objective 6.33281433e+01


Root relaxation: objective 6.332814e+01, 1564 iterations, 0.22 seconds (0.17 work units)

    Nodes    |    Current Node    |     Objective Bounds      |     Work
 Expl Unexpl |  Obj  Depth IntInf | Incumbent    BestBd   Gap | It/Node Time

     0     0   63.32814    0   16  129.20687   63.32814  51.0%     -    0s
     0     0   65.35644    0   15  129.20687   65.35644  49.4%     -    0s
H    0     0                     123.8051031   65.35644  47.2%     -    1s
H    0     0                     117.0749427   65.40852  44.1%     -    1s
     0     0   65.40852    0   15  117.07494   65.40852  44.1%     -    1s
     0     0   65.40852    0   15  117.07494   65.40852  44.1%     -    1s
H    0     0                     112.6534666   65.57907  41.8%     -    1s
     0     0   66.83466    0   13  112.65347   66.83466  40.7%     -    1s
     0     0   66.83466    0   13  112.65347   66.83466  40.7%     -    1s
     0     0   66.83466    0   13  112.65347   66.83466  40.7%     -    1s
     0     0   67.10917    0   12  112.65347   67.10917  40.4%     -    1s
     0     0   67.10917    0   13  112.65347   67.10917  40.4%     -    1s
     0     0   67.10917    0   13  112.65347   67.10917  40.4%     -    1s
     0     0   67.37501    0   13  112.65347   67.37501  40.2%     -    2s
     0     0   67.37501    0   16  112.65347   67.37501  40.2%     -    2s
H    0     0                     102.6198024   67.37501  34.3%     -    2s
     0     0   67.37501    0   13  102.61980   67.37501  34.3%     -    2s
     0     0   67.37501    0   13  102.61980   67.37501  34.3%     -    2s
H    0     0                      99.7158429   67.37501  32.4%     -    2s
     0     0   67.37501    0   13   99.71584   67.37501  32.4%     -    2s
H    0     0                      89.1835525   67.37501  24.5%     -   12s
     0     2   67.37501    0   13   89.18355   67.37501  24.5%     -   12s
    81    84   85.27957    9   12   89.18355   69.23336  22.4%   467   15s
H   91    87                      89.0405453   69.23336  22.2%   465   16s
H   95    87                      87.7055298   69.23336  21.1%   469   16s
   445   215     cutoff   17        87.70553   70.60328  19.5%   359   20s
   795   231   84.94720    8   12   87.70553   75.89895  13.5%   330   31s
H  908   257                      87.5889668   76.57472  12.6%   326   32s
  1067   296     cutoff   11        87.58897   77.69710  11.3%   319   35s
  2068   404   85.02497   12    9   87.58897   80.83985  7.71%   270   41s
  2488   440   82.21033   10    9   87.58897   81.97276  6.41%   252   55s
  3094   489     cutoff   16        87.58897   83.07262  5.16%   235   67s
  3499   479     cutoff   14        87.58897   83.59969  4.55%   226   75s
  4198   352     cutoff   12        87.58897   84.63184  3.38%   212   85s
  4948     4     cutoff   12        87.58897   85.38024  2.52%   197   90s

Cutting planes:
  Gomory: 3
  Implied bound: 72
  MIR: 304
  Relax-and-lift: 31

Explored 5348 nodes (1009607 simplex iterations) in 90.48 seconds (137.05 work units)
Thread count was 9 (of 12 available processors)

Solution count 10: 87.589 87.7055 89.0405 ... 129.207

Optimal solution found (tolerance 1.00e-02)
Best objective 8.758896682271e+01, best bound 8.728361786753e+01, gap 0.3486%

Gurobi 10.0.0 (win64) logging started Thu Jun 13 08:35:54 2024

Set parameter LogFile to value "C:\Users\ealvarezq\Documents\GitHub\Comillas\Models\JointResearch\05. Models\06.Benchmarking\D.Representative_days_based_on_RES_and_Demand\RTS24_mod2_ByStages_nc70/openStarNet_RTS24_mod2_ByStages_nc70.log"
Set parameter Method to value 2
Set parameter MIPFocus to value 1
Set parameter Presolve to value 2
Set parameter RINS to value 100
Set parameter MIPGap to value 0.01
Set parameter Threads to value 9
Set parameter TimeLimit to value 259200
Set parameter IterationLimit to value 760000000
Gurobi Optimizer version 10.0.0 build v10.0.0rc2 (win64)

CPU model: Intel(R) Core(TM) i7-8700 CPU @ 3.20GHz, instruction set [SSE2|AVX|AVX2]
Thread count: 6 physical cores, 12 logical processors, using up to 9 threads

Optimize a model with 24853 rows, 16769 columns and 61840 nonzeros
Model fingerprint: 0x177fe402
Coefficient statistics:
  Matrix range     [5e-03, 5e+02]
  Objective range  [1e+00, 1e+00]
  Bounds range     [4e-05, 2e+00]
  RHS range        [4e-05, 3e+01]
Presolve removed 20977 rows and 9687 columns
Presolve time: 0.03s
Presolved: 3876 rows, 7156 columns, 17702 nonzeros

Ordering time: 0.00s

Barrier statistics:
 AA' NZ     : 9.762e+03
 Factor NZ  : 3.372e+04 (roughly 4 MB of memory)
 Factor Ops : 4.370e+05 (less than 1 second per iteration)
 Threads    : 1

                  Objective                Residual
Iter       Primal          Dual         Primal    Dual     Compl     Time
   0   7.39418234e+06 -1.71201067e+07  3.40e+01 1.18e+03  5.09e+04     0s
   1   4.57403580e+05 -1.62120661e+07  2.00e+00 1.09e-11  4.06e+03     0s
   2   8.27406808e+04 -6.96078411e+06  3.81e-01 6.00e-11  9.05e+02     0s
   3   3.44876074e+04 -2.29010728e+06  9.00e-02 2.18e-11  2.30e+02     0s
   4   1.96516803e+04 -2.97502032e+05  5.65e-03 1.68e-11  2.63e+01     0s
   5   8.81175516e+03 -7.33335292e+04  2.14e-06 1.27e-10  6.66e+00     0s
   6   2.23573105e+03 -9.98777045e+03  1.54e-07 1.55e-11  9.91e-01     0s
   7   4.31829289e+02 -2.03499725e+03  7.68e-10 3.18e-12  2.00e-01     0s
   8   2.80550210e+02 -4.84347437e+02  3.84e-12 1.43e-12  6.20e-02     0s
   9   1.71574382e+02 -1.39805586e+02  3.84e-12 2.64e-12  2.52e-02     0s
  10   1.36685315e+02 -1.29560165e+01  3.86e-12 1.86e-12  1.21e-02     0s
  11   1.10937680e+02  4.79758729e+01  4.09e-12 1.72e-12  5.10e-03     0s
  12   9.70794452e+01  7.52676082e+01  5.16e-12 2.21e-12  1.77e-03     0s
  13   9.00522662e+01  8.37844453e+01  1.73e-11 1.40e-12  5.08e-04     0s
  14   8.77834165e+01  8.72308997e+01  4.82e-11 2.18e-12  4.48e-05     0s
  15   8.76164437e+01  8.75741682e+01  1.70e-10 3.43e-12  3.43e-06     0s
  16   8.75901759e+01  8.75875726e+01  7.54e-09 2.54e-12  2.11e-07     0s
  17   8.75889684e+01  8.75889624e+01  2.66e-09 3.23e-12  4.93e-10     0s
  18   8.75889668e+01  8.75889668e+01  3.05e-10 3.71e-12  5.20e-16     0s

Barrier solved model in 18 iterations and 0.08 seconds (0.08 work units)
Optimal objective 8.75889668e+01

Crossover log...

     885 DPushes remaining with DInf 0.0000000e+00                 0s
       0 DPushes remaining with DInf 0.0000000e+00                 0s

     257 PPushes remaining with PInf 0.0000000e+00                 0s
       0 PPushes remaining with PInf 0.0000000e+00                 0s

  Push phase complete: Pinf 0.0000000e+00, Dinf 1.1381964e-12      0s

Iteration    Objective       Primal Inf.    Dual Inf.      Time
     264    8.7588967e+01   0.000000e+00   0.000000e+00      0s

Use crossover to convert LP symmetric solution to basic solution...
Crossover log...

       0 DPushes remaining with DInf 0.0000000e+00                 0s

     187 PPushes remaining with PInf 0.0000000e+00                 0s
       0 PPushes remaining with PInf 0.0000000e+00                 0s

  Push phase complete: Pinf 0.0000000e+00, Dinf 6.7011794e-13      0s

Iteration    Objective       Primal Inf.    Dual Inf.      Time
     471    8.7588967e+01   0.000000e+00   0.000000e+00      0s

Solved in 471 iterations and 0.12 seconds (0.10 work units)
Optimal objective  8.758896682e+01
